g3 0 1 0	# problem multiplants_stg5
 451 299 1 0 149	# vars, constraints, objectives, ranges, eqns
 25 0	# nonlinear constraints, objectives
 0 0	# network constraints: nonlinear, linear
 37 0 0	# nonlinear vars in constraints, objectives, both
 0 0 0 1	# linear network variables; functions; arith, flags
 216 0 0 0 0	# discrete variables: binary, integer, nonlinear (b,c,o)
 1811 1	# nonzeros in Jacobian, gradients
 4 6	# max name lengths: constraints, variables
 0 0 0 0 0	# common exprs: b,c,o,c1,o1
b
0 0 6.72e5
0 0 6.72e5
0 0 6.72e5
0 0 6.72e5
0 0 6.72e5
0 0 6.72e5
0 0 6.72e5
0 0 6.72e5
0 0 1.116e6
0 0 1.116e6
0 0 1.116e6
0 0 1.116e6
0 0 1.116e6
0 0 1.116e6
0 0 1.116e6
0 0 1.116e6
0 0 8.04e5
0 0 8.04e5
0 0 8.04e5
0 0 8.04e5
0 0 8.04e5
0 0 8.04e5
0 0 8.04e5
0 0 8.04e5
0 0 7.02e5
0 0 1.116e6
0 0 8.04e5
4 0
0 0 600
0 0 600
0 0 600
0 0 600
0 0 600
0 0 600
0 0 600
0 200 600
3
0 0 7.02e5
0 0 7.02e5
0 0 7.02e5
0 0 7.02e5
0 0 7.02e5
0 0 7.02e5
0 0 7.02e5
0 0 7.02e5
0 0 6.72e5
0 0 6.72e5
0 0 6.72e5
0 0 6.72e5
0 0 6.72e5
0 0 6.72e5
0 0 6.72e5
0 0 6.72e5
0 0 6.72e5
0 0 6.72e5
0 0 6.72e5
0 0 6.72e5
0 0 6.72e5
0 0 6.72e5
0 0 6.72e5
0 0 6.72e5
0 0 8.04e5
0 0 8.04e5
0 0 8.04e5
0 0 8.04e5
0 0 8.04e5
0 0 8.04e5
0 0 8.04e5
0 0 8.04e5
0 0 7.74e5
0 0 7.74e5
0 0 7.74e5
0 0 7.74e5
0 0 7.74e5
0 0 7.74e5
0 0 7.74e5
0 0 7.74e5
0 0 1.116e6
0 0 1.116e6
0 0 1.116e6
0 0 1.116e6
0 0 1.116e6
0 0 1.116e6
0 0 1.116e6
0 0 1.116e6
0 0 8.04e5
0 0 8.04e5
0 0 8.04e5
0 0 8.04e5
0 0 8.04e5
0 0 8.04e5
0 0 8.04e5
0 0 8.04e5
0 0 8.04e5
0 0 8.04e5
0 0 8.04e5
0 0 8.04e5
0 0 8.04e5
0 0 8.04e5
0 0 8.04e5
0 0 8.04e5
0 0 8.04e5
0 0 8.04e5
0 0 8.04e5
0 0 8.04e5
0 0 8.04e5
0 0 8.04e5
0 0 8.04e5
0 0 8.04e5
4 0
4 0
4 0
4 0
4 0
4 0
4 0
4 0
4 0
4 0
4 0
4 0
4 0
4 0
4 0
4 0
4 0
4 0
4 0
4 0
4 0
4 0
4 0
4 0
4 0
4 0
4 0
4 0
4 0
4 0
4 0
4 0
4 0
4 0
4 0
4 0
4 0
4 0
4 0
4 0
4 0
4 0
4 0
4 0
4 0
4 0
4 0
4 0
4 0
4 0
4 0
4 0
4 0
4 0
4 0
4 0
4 0
4 0
4 0
4 0
4 0
4 0
4 0
4 0
4 0
4 0
4 0
4 0
4 0
4 0
4 0
4 0
0 0 7.02e5
0 0 7.02e5
0 0 7.02e5
0 0 7.02e5
0 0 7.02e5
0 0 7.02e5
0 0 7.02e5
0 0 7.02e5
0 0 6.72e5
0 0 6.72e5
0 0 6.72e5
0 0 6.72e5
0 0 6.72e5
0 0 6.72e5
0 0 6.72e5
0 0 6.72e5
0 0 8.04e5
0 0 8.04e5
0 0 8.04e5
0 0 8.04e5
0 0 8.04e5
0 0 8.04e5
0 0 8.04e5
0 0 8.04e5
0 0 7.74e5
0 0 7.74e5
0 0 7.74e5
0 0 7.74e5
0 0 7.74e5
0 0 7.74e5
0 0 7.74e5
0 0 7.74e5
0 0 8.04e5
0 0 8.04e5
0 0 8.04e5
0 0 8.04e5
0 0 8.04e5
0 0 8.04e5
0 0 8.04e5
0 0 8.04e5
0 0 8.04e5
0 0 8.04e5
0 0 8.04e5
0 0 8.04e5
0 0 8.04e5
0 0 8.04e5
0 0 8.04e5
0 0 8.04e5
0 0 7.02e5
0 0 6.72e5
0 0 8.04e5
0 0 7.74e5
0 0 8.04e5
0 0 8.04e5
0 0 1
0 0 1
0 0 1
0 0 1
0 0 1
0 0 1
0 0 1
0 0 1
0 0 1
0 0 1
0 0 1
0 0 1
0 0 1
0 0 1
0 0 1
0 0 1
0 0 1
0 0 1
0 0 1
0 0 1
0 0 1
0 0 1
0 0 1
0 0 1
0 0 1
0 0 1
0 0 1
0 0 1
0 0 1
0 0 1
0 0 1
0 0 1
0 0 1
0 0 1
0 0 1
0 0 1
0 0 1
0 0 1
0 0 1
0 0 1
0 0 1
0 0 1
0 0 1
0 0 1
0 0 1
0 0 1
0 0 1
0 0 1
0 0 1
0 0 1
0 0 1
0 0 1
0 0 1
0 0 1
0 0 1
0 0 1
0 0 1
0 0 1
0 0 1
0 0 1
0 0 1
0 0 1
0 0 1
0 0 1
0 0 1
0 0 1
0 0 1
0 0 1
0 0 1
0 0 1
0 0 1
0 0 1
0 0 1
0 0 1
0 0 1
0 0 1
0 0 1
0 0 1
0 0 1
0 0 1
0 0 1
0 0 1
0 0 1
0 0 1
0 0 1
0 0 1
0 0 1
0 0 1
0 0 1
0 0 1
0 0 1
0 0 1
0 0 1
0 0 1
0 0 1
0 0 1
0 0 1
0 0 1
0 0 1
0 0 1
0 0 1
0 0 1
0 0 1
0 0 1
0 0 1
0 0 1
0 0 1
0 0 1
0 0 1
0 0 1
0 0 1
0 0 1
0 0 1
0 0 1
0 0 1
0 0 1
0 0 1
0 0 1
0 0 1
0 0 1
0 0 1
0 0 1
0 0 1
0 0 1
0 0 1
0 0 1
0 0 1
0 0 1
0 0 1
0 0 1
0 0 1
0 0 1
0 0 1
0 0 1
0 0 1
0 0 1
0 0 1
0 0 1
0 0 1
0 0 1
0 0 1
0 0 1
0 0 1
0 0 1
0 0 1
0 0 1
0 0 1
0 0 1
0 0 1
0 0 1
0 0 1
0 0 1
0 0 1
0 0 1
0 0 1
0 0 1
0 0 1
0 0 1
0 0 1
0 0 1
0 0 1
0 0 1
0 0 1
0 0 1
0 0 1
0 0 1
0 0 1
0 0 1
0 0 1
0 0 1
0 0 1
0 0 1
0 0 1
0 0 1
0 0 1
0 0 1
0 0 1
0 0 1
0 0 1
0 0 1
0 0 1
0 0 1
0 0 1
0 0 1
0 0 1
0 0 1
0 0 1
0 0 1
0 0 1
0 0 1
0 0 1
0 0 1
0 0 1
0 0 1
0 0 1
0 0 1
0 0 1
0 0 1
0 0 1
0 0 1
0 0 1
0 0 1
0 0 1
0 0 1
0 0 1
0 0 1
0 0 1
0 0 1
0 0 1
0 0 1
0 0 1
0 0 1
0 0 1
0 0 1
0 0 1
0 0 1
x1
35 200
r
4 0
4 0
4 0
4 0
4 0
4 0
4 0
4 0
4 0
4 0
4 0
4 0
4 0
4 0
4 0
4 0
4 0
4 0
4 0
4 0
4 0
4 0
4 0
4 0
4 0
4 0
4 0
4 0
4 0
4 0
4 0
4 0
4 0
4 0
4 0
4 0
4 0
4 0
4 0
4 0
4 0
4 0
4 0
4 0
4 0
4 0
4 0
4 0
4 0
4 0
4 0
4 0
4 0
4 0
4 0
4 0
4 0
4 0
4 0
4 0
4 0
4 0
4 0
4 0
4 0
4 0
4 0
4 0
4 0
4 0
4 0
4 0
4 0
4 0
4 0
4 0
4 0
4 0
4 0
4 0
4 0
4 0
4 0
4 0
4 0
4 0
4 0
4 0
4 0
4 0
4 0
4 0
4 0
4 0
4 0
4 0
4 0
4 0
4 0
4 0
4 0
4 0
4 0
4 0
4 0
4 0
4 0
4 0
4 0
4 0
4 0
4 0
4 0
4 0
4 0
4 0
4 0
4 0
4 0
4 0
4 0
4 0
4 0
4 0
4 0
4 0
4 0
4 0
4 0
4 0
4 0
4 0
4 0
4 0
4 0
4 0
4 0
4 0
4 0
4 0
4 0
4 0
4 0
4 0
4 0
4 1
4 1
4 1
2 0
2 0
2 0
2 0
2 0
2 0
2 0
2 0
2 0
2 0
2 0
2 0
2 0
2 0
2 0
2 0
2 0
2 0
2 0
2 0
2 0
2 0
2 0
2 0
1 0
1 0
1 0
1 0
1 0
1 0
1 0
1 0
1 0
1 0
1 0
1 0
1 0
1 0
1 0
1 0
1 0
1 0
1 0
1 0
1 0
1 0
1 0
1 0
1 0
1 0
1 0
1 0
1 0
1 0
1 0
1 0
1 0
1 0
1 0
1 0
1 0
1 0
1 0
1 0
1 0
1 0
1 0
1 0
1 0
1 0
1 0
1 0
1 0
1 0
1 0
1 0
1 0
1 0
1 0
1 0
1 0
1 0
1 0
1 0
1 0
1 0
1 0
1 0
1 0
1 0
1 0
1 0
1 0
1 0
1 0
1 0
2 0
2 0
2 0
1 0
1 0
1 0
1 0
1 0
1 0
1 0
1 0
1 0
1 0
1 0
1 0
1 0
1 0
1 0
1 0
1 0
1 0
1 0
1 0
1 0
1 0
1 0
1 0
1 0
1 0
1 0
1 0
1 0
1 0
1 0
1 0
1 0
1 0
1 0
1 0
1 0
1 0
1 0
1 0
1 0
1 0
1 0
1 0
1 0
1 0
1 0
1 0
1 3
1 3
1 3
4 1
C0
o54
25
o2
v36
v35
o2
o0
o2
n2.03e-3
v0
o2
n2.03e-3
v1
o1
v28
v27
o2
o0
o2
n2.03e-3
v1
o2
n2.03e-3
v2
o1
v29
v28
o2
o0
o2
n2.03e-3
v2
o2
n2.03e-3
v3
o1
v30
v29
o2
o0
o2
n2.03e-3
v3
o2
n2.03e-3
v4
o1
v31
v30
o2
o0
o2
n2.03e-3
v4
o2
n2.03e-3
v5
o1
v32
v31
o2
o0
o2
n2.03e-3
v5
o2
n2.03e-3
v6
o1
v33
v32
o2
o0
o2
n2.03e-3
v6
o2
n2.03e-3
v7
o1
v34
v33
o2
o0
o2
n2.03e-3
v0
o2
n2.03e-3
v7
o1
v35
v34
o2
o0
o2
n2.03e-3
v8
o2
n2.03e-3
v9
o1
v28
v27
o2
o0
o2
n2.03e-3
v9
o2
n2.03e-3
v10
o1
v29
v28
o2
o0
o2
n2.03e-3
v10
o2
n2.03e-3
v11
o1
v30
v29
o2
o0
o2
n2.03e-3
v11
o2
n2.03e-3
v12
o1
v31
v30
o2
o0
o2
n2.03e-3
v12
o2
n2.03e-3
v13
o1
v32
v31
o2
o0
o2
n2.03e-3
v13
o2
n2.03e-3
v14
o1
v33
v32
o2
o0
o2
n2.03e-3
v14
o2
n2.03e-3
v15
o1
v34
v33
o2
o0
o2
n2.03e-3
v8
o2
n2.03e-3
v15
o1
v35
v34
o2
o0
o2
n2.03e-3
v16
o2
n2.03e-3
v17
o1
v28
v27
o2
o0
o2
n2.03e-3
v17
o2
n2.03e-3
v18
o1
v29
v28
o2
o0
o2
n2.03e-3
v18
o2
n2.03e-3
v19
o1
v30
v29
o2
o0
o2
n2.03e-3
v19
o2
n2.03e-3
v20
o1
v31
v30
o2
o0
o2
n2.03e-3
v20
o2
n2.03e-3
v21
o1
v32
v31
o2
o0
o2
n2.03e-3
v21
o2
n2.03e-3
v22
o1
v33
v32
o2
o0
o2
n2.03e-3
v22
o2
n2.03e-3
v23
o1
v34
v33
o2
o0
o2
n2.03e-3
v16
o2
n2.03e-3
v23
o1
v35
v34
C1
o2
o3
v24
v35
o1
v35
v34
C2
o2
o3
v24
v35
o1
v28
v27
C3
o2
o3
v24
v35
o1
v29
v28
C4
o2
o3
v24
v35
o1
v30
v29
C5
o2
o3
v24
v35
o1
v31
v30
C6
o2
o3
v24
v35
o1
v32
v31
C7
o2
o3
v24
v35
o1
v33
v32
C8
o2
o3
v24
v35
o1
v34
v33
C9
o2
o3
v25
v35
o1
v35
v34
C10
o2
o3
v25
v35
o1
v28
v27
C11
o2
o3
v25
v35
o1
v29
v28
C12
o2
o3
v25
v35
o1
v30
v29
C13
o2
o3
v25
v35
o1
v31
v30
C14
o2
o3
v25
v35
o1
v32
v31
C15
o2
o3
v25
v35
o1
v33
v32
C16
o2
o3
v25
v35
o1
v34
v33
C17
o2
o3
v26
v35
o1
v35
v34
C18
o2
o3
v26
v35
o1
v28
v27
C19
o2
o3
v26
v35
o1
v29
v28
C20
o2
o3
v26
v35
o1
v30
v29
C21
o2
o3
v26
v35
o1
v31
v30
C22
o2
o3
v26
v35
o1
v32
v31
C23
o2
o3
v26
v35
o1
v33
v32
C24
o2
o3
v26
v35
o1
v34
v33
C25
n0
C26
n0
C27
n0
C28
n0
C29
n0
C30
n0
C31
n0
C32
n0
C33
n0
C34
n0
C35
n0
C36
n0
C37
n0
C38
n0
C39
n0
C40
n0
C41
n0
C42
n0
C43
n0
C44
n0
C45
n0
C46
n0
C47
n0
C48
n0
C49
n0
C50
n0
C51
n0
C52
n0
C53
n0
C54
n0
C55
n0
C56
n0
C57
n0
C58
n0
C59
n0
C60
n0
C61
n0
C62
n0
C63
n0
C64
n0
C65
n0
C66
n0
C67
n0
C68
n0
C69
n0
C70
n0
C71
n0
C72
n0
C73
n0
C74
n0
C75
n0
C76
n0
C77
n0
C78
n0
C79
n0
C80
n0
C81
n0
C82
n0
C83
n0
C84
n0
C85
n0
C86
n0
C87
n0
C88
n0
C89
n0
C90
n0
C91
n0
C92
n0
C93
n0
C94
n0
C95
n0
C96
n0
C97
n0
C98
n0
C99
n0
C100
n0
C101
n0
C102
n0
C103
n0
C104
n0
C105
n0
C106
n0
C107
n0
C108
n0
C109
n0
C110
n0
C111
n0
C112
n0
C113
n0
C114
n0
C115
n0
C116
n0
C117
n0
C118
n0
C119
n0
C120
n0
C121
n0
C122
n0
C123
n0
C124
n0
C125
n0
C126
n0
C127
n0
C128
n0
C129
n0
C130
n0
C131
n0
C132
n0
C133
n0
C134
n0
C135
n0
C136
n0
C137
n0
C138
n0
C139
n0
C140
n0
C141
n0
C142
n0
C143
n0
C144
n0
C145
n0
C146
n0
C147
n0
C148
n0
C149
n0
C150
n0
C151
n0
C152
n0
C153
n0
C154
n0
C155
n0
C156
n0
C157
n0
C158
n0
C159
n0
C160
n0
C161
n0
C162
n0
C163
n0
C164
n0
C165
n0
C166
n0
C167
n0
C168
n0
C169
n0
C170
n0
C171
n0
C172
n0
C173
n0
C174
n0
C175
n0
C176
n0
C177
n0
C178
n0
C179
n0
C180
n0
C181
n0
C182
n0
C183
n0
C184
n0
C185
n0
C186
n0
C187
n0
C188
n0
C189
n0
C190
n0
C191
n0
C192
n0
C193
n0
C194
n0
C195
n0
C196
n0
C197
n0
C198
n0
C199
n0
C200
n0
C201
n0
C202
n0
C203
n0
C204
n0
C205
n0
C206
n0
C207
n0
C208
n0
C209
n0
C210
n0
C211
n0
C212
n0
C213
n0
C214
n0
C215
n0
C216
n0
C217
n0
C218
n0
C219
n0
C220
n0
C221
n0
C222
n0
C223
n0
C224
n0
C225
n0
C226
n0
C227
n0
C228
n0
C229
n0
C230
n0
C231
n0
C232
n0
C233
n0
C234
n0
C235
n0
C236
n0
C237
n0
C238
n0
C239
n0
C240
n0
C241
n0
C242
n0
C243
n0
C244
n0
C245
n0
C246
n0
C247
n0
C248
n0
C249
n0
C250
n0
C251
n0
C252
n0
C253
n0
C254
n0
C255
n0
C256
n0
C257
n0
C258
n0
C259
n0
C260
n0
C261
n0
C262
n0
C263
n0
C264
n0
C265
n0
C266
n0
C267
n0
C268
n0
C269
n0
C270
n0
C271
n0
C272
n0
C273
n0
C274
n0
C275
n0
C276
n0
C277
n0
C278
n0
C279
n0
C280
n0
C281
n0
C282
n0
C283
n0
C284
n0
C285
n0
C286
n0
C287
n0
C288
n0
C289
n0
C290
n0
C291
n0
C292
n0
C293
n0
C294
n0
C295
n0
C296
n0
C297
n0
C298
n0
O0 1
n0
k450
3
6
9
12
15
18
21
24
27
30
33
36
39
42
45
48
51
54
57
60
63
66
69
72
82
92
102
109
122
135
148
161
174
187
200
231
232
235
238
241
244
247
250
253
256
260
264
268
272
276
280
284
288
292
296
300
304
308
312
316
320
323
326
329
332
335
338
341
344
348
352
356
360
364
368
372
376
380
384
388
392
396
400
404
408
411
414
417
420
423
426
429
432
436
440
444
448
452
456
460
464
468
472
476
480
484
488
492
496
499
501
503
505
507
509
511
513
516
518
520
522
524
526
528
530
533
535
537
539
541
543
545
547
550
552
554
556
558
560
562
564
567
569
571
573
575
577
579
581
584
586
588
590
592
594
596
598
601
603
605
607
609
611
613
615
618
620
622
624
626
628
630
632
635
637
639
641
643
645
647
649
652
655
658
661
664
667
670
673
676
679
682
685
688
691
694
697
700
703
706
709
712
715
718
721
724
727
730
733
736
739
742
745
748
751
754
757
760
763
766
769
772
775
778
781
784
787
790
793
802
811
820
829
838
847
852
855
858
861
864
867
870
873
877
880
883
886
889
892
895
898
902
905
908
911
914
917
920
923
927
930
933
936
939
942
945
948
952
955
958
961
964
967
970
973
977
980
983
986
989
992
995
998
1002
1005
1008
1011
1014
1017
1020
1023
1027
1030
1033
1036
1039
1042
1045
1048
1052
1055
1058
1061
1064
1067
1070
1073
1079
1084
1089
1094
1099
1104
1109
1114
1120
1125
1130
1135
1140
1145
1150
1155
1161
1166
1171
1176
1181
1186
1191
1196
1202
1207
1212
1217
1222
1227
1232
1237
1243
1248
1253
1258
1263
1268
1273
1278
1284
1289
1294
1299
1304
1309
1314
1319
1325
1330
1335
1340
1345
1350
1355
1360
1366
1371
1376
1381
1386
1391
1396
1401
1407
1412
1417
1422
1427
1432
1437
1442
1448
1453
1458
1463
1468
1473
1478
1483
1489
1494
1499
1504
1509
1514
1519
1524
1530
1535
1540
1545
1550
1555
1560
1565
1571
1576
1581
1586
1591
1596
1601
1606
1612
1617
1622
1627
1632
1637
1642
1647
1653
1658
1663
1668
1673
1678
1683
1688
1694
1699
1704
1709
1714
1719
1724
1729
1735
1740
1745
1750
1755
1760
1765
1770
1776
1781
1786
1791
1796
1801
1806
J0 187
0 0
1 0
2 0
3 0
4 0
5 0
6 0
7 0
8 0
9 0
10 0
11 0
12 0
13 0
14 0
15 0
16 0
17 0
18 0
19 0
20 0
21 0
22 0
23 0
24 -4
25 -1.5
26 -6.5
27 0
28 0
29 0
30 0
31 0
32 0
33 0
34 0
35 0
36 0
229 .1218
230 .1218
231 .1218
232 .1218
233 .1218
234 .1218
307 7.6e3
308 7.6e3
309 7.6e3
310 7.6e3
311 7.6e3
312 7.6e3
313 7.6e3
314 7.6e3
315 7.6e3
316 7.6e3
317 7.6e3
318 7.6e3
319 7.6e3
320 7.6e3
321 7.6e3
322 7.6e3
323 7.5e3
324 7.5e3
325 7.5e3
326 7.5e3
327 7.5e3
328 7.5e3
329 7.5e3
330 7.5e3
331 7.5e2
332 7.5e2
333 7.5e2
334 7.5e2
335 7.5e2
336 7.5e2
337 7.5e2
338 7.5e2
339 7.7e3
340 7.7e3
341 7.7e3
342 7.7e3
343 7.7e3
344 7.7e3
345 7.7e3
346 7.7e3
347 7.7e2
348 7.7e2
349 7.7e2
350 7.7e2
351 7.7e2
352 7.7e2
353 7.7e2
354 7.7e2
355 2.28e3
356 2.28e3
357 2.28e3
358 2.28e3
359 2.28e3
360 2.28e3
361 2.28e3
362 2.28e3
363 2.28e3
364 2.28e3
365 2.28e3
366 2.28e3
367 2.28e3
368 2.28e3
369 2.28e3
370 2.28e3
371 2.25e3
372 2.25e3
373 2.25e3
374 2.25e3
375 2.25e3
376 2.25e3
377 2.25e3
378 2.25e3
379 7.5e2
380 7.5e2
381 7.5e2
382 7.5e2
383 7.5e2
384 7.5e2
385 7.5e2
386 7.5e2
387 2.31e3
388 2.31e3
389 2.31e3
390 2.31e3
391 2.31e3
392 2.31e3
393 2.31e3
394 2.31e3
395 7.7e2
396 7.7e2
397 7.7e2
398 7.7e2
399 7.7e2
400 7.7e2
401 7.7e2
402 7.7e2
403 1.52e3
404 1.52e3
405 1.52e3
406 1.52e3
407 1.52e3
408 1.52e3
409 1.52e3
410 1.52e3
411 1.52e3
412 1.52e3
413 1.52e3
414 1.52e3
415 1.52e3
416 1.52e3
417 1.52e3
418 1.52e3
419 1.5e3
420 1.5e3
421 1.5e3
422 1.5e3
423 1.5e3
424 1.5e3
425 1.5e3
426 1.5e3
427 7.5e2
428 7.5e2
429 7.5e2
430 7.5e2
431 7.5e2
432 7.5e2
433 7.5e2
434 7.5e2
435 1.54e3
436 1.54e3
437 1.54e3
438 1.54e3
439 1.54e3
440 1.54e3
441 1.54e3
442 1.54e3
443 7.7e2
444 7.7e2
445 7.7e2
446 7.7e2
447 7.7e2
448 7.7e2
449 7.7e2
450 7.7e2
J1 6
0 1
7 -1
24 0
34 0
35 0
60 -1
J2 7
0 -1
1 1
24 0
27 0
28 0
35 0
53 -1
J3 7
1 -1
2 1
24 0
28 0
29 0
35 0
54 -1
J4 7
2 -1
3 1
24 0
29 0
30 0
35 0
55 -1
J5 7
3 -1
4 1
24 0
30 0
31 0
35 0
56 -1
J6 7
4 -1
5 1
24 0
31 0
32 0
35 0
57 -1
J7 7
5 -1
6 1
24 0
32 0
33 0
35 0
58 -1
J8 7
6 -1
7 1
24 0
33 0
34 0
35 0
59 -1
J9 6
8 1
15 -1
25 0
34 0
35 0
84 -1
J10 7
8 -1
9 1
25 0
27 0
28 0
35 0
77 -1
J11 7
9 -1
10 1
25 0
28 0
29 0
35 0
78 -1
J12 7
10 -1
11 1
25 0
29 0
30 0
35 0
79 -1
J13 7
11 -1
12 1
25 0
30 0
31 0
35 0
80 -1
J14 7
12 -1
13 1
25 0
31 0
32 0
35 0
81 -1
J15 7
13 -1
14 1
25 0
32 0
33 0
35 0
82 -1
J16 7
14 -1
15 1
25 0
33 0
34 0
35 0
83 -1
J17 6
16 1
23 -1
26 0
34 0
35 0
108 -1
J18 7
16 -1
17 1
26 0
27 0
28 0
35 0
101 -1
J19 7
17 -1
18 1
26 0
28 0
29 0
35 0
102 -1
J20 7
18 -1
19 1
26 0
29 0
30 0
35 0
103 -1
J21 7
19 -1
20 1
26 0
30 0
31 0
35 0
104 -1
J22 7
20 -1
21 1
26 0
31 0
32 0
35 0
105 -1
J23 7
21 -1
22 1
26 0
32 0
33 0
35 0
106 -1
J24 7
22 -1
23 1
26 0
33 0
34 0
35 0
107 -1
J25 8
109 1
116 -1
235 1
242 -1
307 1
315 1
330 -1
346 -1
J26 8
109 -1
110 1
235 -1
236 1
308 1
316 1
323 -1
339 -1
J27 8
110 -1
111 1
236 -1
237 1
309 1
317 1
324 -1
340 -1
J28 8
111 -1
112 1
237 -1
238 1
310 1
318 1
325 -1
341 -1
J29 8
112 -1
113 1
238 -1
239 1
311 1
319 1
326 -1
342 -1
J30 8
113 -1
114 1
239 -1
240 1
312 1
320 1
327 -1
343 -1
J31 8
114 -1
115 1
240 -1
241 1
313 1
321 1
328 -1
344 -1
J32 8
115 -1
116 1
241 -1
242 1
314 1
322 1
329 -1
345 -1
J33 8
117 1
124 -1
259 1
266 -1
314 -1
323 1
331 1
354 -1
J34 8
117 -1
118 1
259 -1
260 1
307 -1
324 1
332 1
347 -1
J35 8
118 -1
119 1
260 -1
261 1
308 -1
325 1
333 1
348 -1
J36 8
119 -1
120 1
261 -1
262 1
309 -1
326 1
334 1
349 -1
J37 8
120 -1
121 1
262 -1
263 1
310 -1
327 1
335 1
350 -1
J38 8
121 -1
122 1
263 -1
264 1
311 -1
328 1
336 1
351 -1
J39 8
122 -1
123 1
264 -1
265 1
312 -1
329 1
337 1
352 -1
J40 8
123 -1
124 1
265 -1
266 1
313 -1
330 1
338 1
353 -1
J41 8
125 1
132 -1
283 1
290 -1
322 -1
338 -1
339 1
347 1
J42 8
125 -1
126 1
283 -1
284 1
315 -1
331 -1
340 1
348 1
J43 8
126 -1
127 1
284 -1
285 1
316 -1
332 -1
341 1
349 1
J44 8
127 -1
128 1
285 -1
286 1
317 -1
333 -1
342 1
350 1
J45 8
128 -1
129 1
286 -1
287 1
318 -1
334 -1
343 1
351 1
J46 8
129 -1
130 1
287 -1
288 1
319 -1
335 -1
344 1
352 1
J47 8
130 -1
131 1
288 -1
289 1
320 -1
336 -1
345 1
353 1
J48 8
131 -1
132 1
289 -1
290 1
321 -1
337 -1
346 1
354 1
J49 8
133 1
140 -1
243 1
250 -1
355 1
363 1
378 -1
394 -1
J50 8
133 -1
134 1
243 -1
244 1
356 1
364 1
371 -1
387 -1
J51 8
134 -1
135 1
244 -1
245 1
357 1
365 1
372 -1
388 -1
J52 8
135 -1
136 1
245 -1
246 1
358 1
366 1
373 -1
389 -1
J53 8
136 -1
137 1
246 -1
247 1
359 1
367 1
374 -1
390 -1
J54 8
137 -1
138 1
247 -1
248 1
360 1
368 1
375 -1
391 -1
J55 8
138 -1
139 1
248 -1
249 1
361 1
369 1
376 -1
392 -1
J56 8
139 -1
140 1
249 -1
250 1
362 1
370 1
377 -1
393 -1
J57 8
141 1
148 -1
267 1
274 -1
362 -1
371 1
379 1
402 -1
J58 8
141 -1
142 1
267 -1
268 1
355 -1
372 1
380 1
395 -1
J59 8
142 -1
143 1
268 -1
269 1
356 -1
373 1
381 1
396 -1
J60 8
143 -1
144 1
269 -1
270 1
357 -1
374 1
382 1
397 -1
J61 8
144 -1
145 1
270 -1
271 1
358 -1
375 1
383 1
398 -1
J62 8
145 -1
146 1
271 -1
272 1
359 -1
376 1
384 1
399 -1
J63 8
146 -1
147 1
272 -1
273 1
360 -1
377 1
385 1
400 -1
J64 8
147 -1
148 1
273 -1
274 1
361 -1
378 1
386 1
401 -1
J65 8
149 1
156 -1
291 1
298 -1
370 -1
386 -1
387 1
395 1
J66 8
149 -1
150 1
291 -1
292 1
363 -1
379 -1
388 1
396 1
J67 8
150 -1
151 1
292 -1
293 1
364 -1
380 -1
389 1
397 1
J68 8
151 -1
152 1
293 -1
294 1
365 -1
381 -1
390 1
398 1
J69 8
152 -1
153 1
294 -1
295 1
366 -1
382 -1
391 1
399 1
J70 8
153 -1
154 1
295 -1
296 1
367 -1
383 -1
392 1
400 1
J71 8
154 -1
155 1
296 -1
297 1
368 -1
384 -1
393 1
401 1
J72 8
155 -1
156 1
297 -1
298 1
369 -1
385 -1
394 1
402 1
J73 8
157 1
164 -1
251 1
258 -1
403 1
411 1
426 -1
442 -1
J74 8
157 -1
158 1
251 -1
252 1
404 1
412 1
419 -1
435 -1
J75 8
158 -1
159 1
252 -1
253 1
405 1
413 1
420 -1
436 -1
J76 8
159 -1
160 1
253 -1
254 1
406 1
414 1
421 -1
437 -1
J77 8
160 -1
161 1
254 -1
255 1
407 1
415 1
422 -1
438 -1
J78 8
161 -1
162 1
255 -1
256 1
408 1
416 1
423 -1
439 -1
J79 8
162 -1
163 1
256 -1
257 1
409 1
417 1
424 -1
440 -1
J80 8
163 -1
164 1
257 -1
258 1
410 1
418 1
425 -1
441 -1
J81 8
165 1
172 -1
275 1
282 -1
410 -1
419 1
427 1
450 -1
J82 8
165 -1
166 1
275 -1
276 1
403 -1
420 1
428 1
443 -1
J83 8
166 -1
167 1
276 -1
277 1
404 -1
421 1
429 1
444 -1
J84 8
167 -1
168 1
277 -1
278 1
405 -1
422 1
430 1
445 -1
J85 8
168 -1
169 1
278 -1
279 1
406 -1
423 1
431 1
446 -1
J86 8
169 -1
170 1
279 -1
280 1
407 -1
424 1
432 1
447 -1
J87 8
170 -1
171 1
280 -1
281 1
408 -1
425 1
433 1
448 -1
J88 8
171 -1
172 1
281 -1
282 1
409 -1
426 1
434 1
449 -1
J89 8
173 1
180 -1
299 1
306 -1
418 -1
434 -1
435 1
443 1
J90 8
173 -1
174 1
299 -1
300 1
411 -1
427 -1
436 1
444 1
J91 8
174 -1
175 1
300 -1
301 1
412 -1
428 -1
437 1
445 1
J92 8
175 -1
176 1
301 -1
302 1
413 -1
429 -1
438 1
446 1
J93 8
176 -1
177 1
302 -1
303 1
414 -1
430 -1
439 1
447 1
J94 8
177 -1
178 1
303 -1
304 1
415 -1
431 -1
440 1
448 1
J95 8
178 -1
179 1
304 -1
305 1
416 -1
432 -1
441 1
449 1
J96 8
179 -1
180 1
305 -1
306 1
417 -1
433 -1
442 1
450 1
J97 4
44 -1
52 1
181 1
188 -1
J98 4
37 -1
45 1
181 -1
182 1
J99 4
38 -1
46 1
182 -1
183 1
J100 4
39 -1
47 1
183 -1
184 1
J101 4
40 -1
48 1
184 -1
185 1
J102 4
41 -1
49 1
185 -1
186 1
J103 4
42 -1
50 1
186 -1
187 1
J104 4
43 -1
51 1
187 -1
188 1
J105 4
52 -1
60 1
189 1
196 -1
J106 4
45 -1
53 1
189 -1
190 1
J107 4
46 -1
54 1
190 -1
191 1
J108 4
47 -1
55 1
191 -1
192 1
J109 4
48 -1
56 1
192 -1
193 1
J110 4
49 -1
57 1
193 -1
194 1
J111 4
50 -1
58 1
194 -1
195 1
J112 4
51 -1
59 1
195 -1
196 1
J113 4
68 -1
76 1
197 1
204 -1
J114 4
61 -1
69 1
197 -1
198 1
J115 4
62 -1
70 1
198 -1
199 1
J116 4
63 -1
71 1
199 -1
200 1
J117 4
64 -1
72 1
200 -1
201 1
J118 4
65 -1
73 1
201 -1
202 1
J119 4
66 -1
74 1
202 -1
203 1
J120 4
67 -1
75 1
203 -1
204 1
J121 4
76 -1
84 1
205 1
212 -1
J122 4
69 -1
77 1
205 -1
206 1
J123 4
70 -1
78 1
206 -1
207 1
J124 4
71 -1
79 1
207 -1
208 1
J125 4
72 -1
80 1
208 -1
209 1
J126 4
73 -1
81 1
209 -1
210 1
J127 4
74 -1
82 1
210 -1
211 1
J128 4
75 -1
83 1
211 -1
212 1
J129 4
92 -1
100 1
213 1
220 -1
J130 4
85 -1
93 1
213 -1
214 1
J131 4
86 -1
94 1
214 -1
215 1
J132 4
87 -1
95 1
215 -1
216 1
J133 4
88 -1
96 1
216 -1
217 1
J134 4
89 -1
97 1
217 -1
218 1
J135 4
90 -1
98 1
218 -1
219 1
J136 4
91 -1
99 1
219 -1
220 1
J137 4
100 -1
108 1
221 1
228 -1
J138 4
93 -1
101 1
221 -1
222 1
J139 4
94 -1
102 1
222 -1
223 1
J140 4
95 -1
103 1
223 -1
224 1
J141 4
96 -1
104 1
224 -1
225 1
J142 4
97 -1
105 1
225 -1
226 1
J143 4
98 -1
106 1
226 -1
227 1
J144 4
99 -1
107 1
227 -1
228 1
J145 12
109 1
117 1
125 1
235 1
259 1
283 1
307 1
315 1
323 1
331 1
339 1
347 1
J146 12
133 1
141 1
149 1
243 1
267 1
291 1
355 1
363 1
371 1
379 1
387 1
395 1
J147 12
157 1
165 1
173 1
251 1
275 1
299 1
403 1
411 1
419 1
427 1
435 1
443 1
J148 11
27 -1
28 1
37 -8.54700854700855e-4
61 -7.46268656716418e-4
85 -7.46268656716418e-4
307 -10
315 -10
323 -10
331 -1
339 -10
347 -1
J149 11
28 -1
29 1
38 -8.54700854700855e-4
62 -7.46268656716418e-4
86 -7.46268656716418e-4
308 -10
316 -10
324 -10
332 -1
340 -10
348 -1
J150 11
29 -1
30 1
39 -8.54700854700855e-4
63 -7.46268656716418e-4
87 -7.46268656716418e-4
309 -10
317 -10
325 -10
333 -1
341 -10
349 -1
J151 11
30 -1
31 1
40 -8.54700854700855e-4
64 -7.46268656716418e-4
88 -7.46268656716418e-4
310 -10
318 -10
326 -10
334 -1
342 -10
350 -1
J152 11
31 -1
32 1
41 -8.54700854700855e-4
65 -7.46268656716418e-4
89 -7.46268656716418e-4
311 -10
319 -10
327 -10
335 -1
343 -10
351 -1
J153 11
32 -1
33 1
42 -8.54700854700855e-4
66 -7.46268656716418e-4
90 -7.46268656716418e-4
312 -10
320 -10
328 -10
336 -1
344 -10
352 -1
J154 11
33 -1
34 1
43 -8.54700854700855e-4
67 -7.46268656716418e-4
91 -7.46268656716418e-4
313 -10
321 -10
329 -10
337 -1
345 -10
353 -1
J155 11
34 -1
35 1
44 -8.54700854700855e-4
68 -7.46268656716418e-4
92 -7.46268656716418e-4
314 -10
322 -10
330 -10
338 -1
346 -10
354 -1
J156 11
27 -1
28 1
45 -8.92857142857143e-4
69 -7.75193798449612e-4
93 -7.46268656716418e-4
355 -3
363 -3
371 -3
379 -1
387 -3
395 -1
J157 11
28 -1
29 1
46 -8.92857142857143e-4
70 -7.75193798449612e-4
94 -7.46268656716418e-4
356 -3
364 -3
372 -3
380 -1
388 -3
396 -1
J158 11
29 -1
30 1
47 -8.92857142857143e-4
71 -7.75193798449612e-4
95 -7.46268656716418e-4
357 -3
365 -3
373 -3
381 -1
389 -3
397 -1
J159 11
30 -1
31 1
48 -8.92857142857143e-4
72 -7.75193798449612e-4
96 -7.46268656716418e-4
358 -3
366 -3
374 -3
382 -1
390 -3
398 -1
J160 11
31 -1
32 1
49 -8.92857142857143e-4
73 -7.75193798449612e-4
97 -7.46268656716418e-4
359 -3
367 -3
375 -3
383 -1
391 -3
399 -1
J161 11
32 -1
33 1
50 -8.92857142857143e-4
74 -7.75193798449612e-4
98 -7.46268656716418e-4
360 -3
368 -3
376 -3
384 -1
392 -3
400 -1
J162 11
33 -1
34 1
51 -8.92857142857143e-4
75 -7.75193798449612e-4
99 -7.46268656716418e-4
361 -3
369 -3
377 -3
385 -1
393 -3
401 -1
J163 11
34 -1
35 1
52 -8.92857142857143e-4
76 -7.75193798449612e-4
100 -7.46268656716418e-4
362 -3
370 -3
378 -3
386 -1
394 -3
402 -1
J164 11
27 -1
28 1
53 -8.92857142857143e-4
77 -5.37634408602151e-4
101 -7.46268656716418e-4
403 -2
411 -2
419 -2
427 -1
435 -2
443 -1
J165 11
28 -1
29 1
54 -8.92857142857143e-4
78 -5.37634408602151e-4
102 -7.46268656716418e-4
404 -2
412 -2
420 -2
428 -1
436 -2
444 -1
J166 11
29 -1
30 1
55 -8.92857142857143e-4
79 -5.37634408602151e-4
103 -7.46268656716418e-4
405 -2
413 -2
421 -2
429 -1
437 -2
445 -1
J167 11
30 -1
31 1
56 -8.92857142857143e-4
80 -5.37634408602151e-4
104 -7.46268656716418e-4
406 -2
414 -2
422 -2
430 -1
438 -2
446 -1
J168 11
31 -1
32 1
57 -8.92857142857143e-4
81 -5.37634408602151e-4
105 -7.46268656716418e-4
407 -2
415 -2
423 -2
431 -1
439 -2
447 -1
J169 11
32 -1
33 1
58 -8.92857142857143e-4
82 -5.37634408602151e-4
106 -7.46268656716418e-4
408 -2
416 -2
424 -2
432 -1
440 -2
448 -1
J170 11
33 -1
34 1
59 -8.92857142857143e-4
83 -5.37634408602151e-4
107 -7.46268656716418e-4
409 -2
417 -2
425 -2
433 -1
441 -2
449 -1
J171 11
34 -1
35 1
60 -8.92857142857143e-4
84 -5.37634408602151e-4
108 -7.46268656716418e-4
410 -2
418 -2
426 -2
434 -1
442 -2
450 -1
J172 2
37 1
235 -7.02e5
J173 2
38 1
236 -7.02e5
J174 2
39 1
237 -7.02e5
J175 2
40 1
238 -7.02e5
J176 2
41 1
239 -7.02e5
J177 2
42 1
240 -7.02e5
J178 2
43 1
241 -7.02e5
J179 2
44 1
242 -7.02e5
J180 2
45 1
243 -6.72e5
J181 2
46 1
244 -6.72e5
J182 2
47 1
245 -6.72e5
J183 2
48 1
246 -6.72e5
J184 2
49 1
247 -6.72e5
J185 2
50 1
248 -6.72e5
J186 2
51 1
249 -6.72e5
J187 2
52 1
250 -6.72e5
J188 2
53 1
251 -6.72e5
J189 2
54 1
252 -6.72e5
J190 2
55 1
253 -6.72e5
J191 2
56 1
254 -6.72e5
J192 2
57 1
255 -6.72e5
J193 2
58 1
256 -6.72e5
J194 2
59 1
257 -6.72e5
J195 2
60 1
258 -6.72e5
J196 2
61 1
259 -8.04e5
J197 2
62 1
260 -8.04e5
J198 2
63 1
261 -8.04e5
J199 2
64 1
262 -8.04e5
J200 2
65 1
263 -8.04e5
J201 2
66 1
264 -8.04e5
J202 2
67 1
265 -8.04e5
J203 2
68 1
266 -8.04e5
J204 2
69 1
267 -7.74e5
J205 2
70 1
268 -7.74e5
J206 2
71 1
269 -7.74e5
J207 2
72 1
270 -7.74e5
J208 2
73 1
271 -7.74e5
J209 2
74 1
272 -7.74e5
J210 2
75 1
273 -7.74e5
J211 2
76 1
274 -7.74e5
J212 2
77 1
275 -1.116e6
J213 2
78 1
276 -1.116e6
J214 2
79 1
277 -1.116e6
J215 2
80 1
278 -1.116e6
J216 2
81 1
279 -1.116e6
J217 2
82 1
280 -1.116e6
J218 2
83 1
281 -1.116e6
J219 2
84 1
282 -1.116e6
J220 2
85 1
283 -8.04e5
J221 2
86 1
284 -8.04e5
J222 2
87 1
285 -8.04e5
J223 2
88 1
286 -8.04e5
J224 2
89 1
287 -8.04e5
J225 2
90 1
288 -8.04e5
J226 2
91 1
289 -8.04e5
J227 2
92 1
290 -8.04e5
J228 2
93 1
291 -8.04e5
J229 2
94 1
292 -8.04e5
J230 2
95 1
293 -8.04e5
J231 2
96 1
294 -8.04e5
J232 2
97 1
295 -8.04e5
J233 2
98 1
296 -8.04e5
J234 2
99 1
297 -8.04e5
J235 2
100 1
298 -8.04e5
J236 2
101 1
299 -8.04e5
J237 2
102 1
300 -8.04e5
J238 2
103 1
301 -8.04e5
J239 2
104 1
302 -8.04e5
J240 2
105 1
303 -8.04e5
J241 2
106 1
304 -8.04e5
J242 2
107 1
305 -8.04e5
J243 2
108 1
306 -8.04e5
J244 2
24 1
35 -1.5e2
J245 2
25 1
35 -2.5e2
J246 2
26 1
35 -500
J247 2
181 1
229 -1
J248 2
182 1
229 -1
J249 2
183 1
229 -1
J250 2
184 1
229 -1
J251 2
185 1
229 -1
J252 2
186 1
229 -1
J253 2
187 1
229 -1
J254 2
188 1
229 -1
J255 2
189 1
230 -1
J256 2
190 1
230 -1
J257 2
191 1
230 -1
J258 2
192 1
230 -1
J259 2
193 1
230 -1
J260 2
194 1
230 -1
J261 2
195 1
230 -1
J262 2
196 1
230 -1
J263 2
197 1
231 -1
J264 2
198 1
231 -1
J265 2
199 1
231 -1
J266 2
200 1
231 -1
J267 2
201 1
231 -1
J268 2
202 1
231 -1
J269 2
203 1
231 -1
J270 2
204 1
231 -1
J271 2
205 1
232 -1
J272 2
206 1
232 -1
J273 2
207 1
232 -1
J274 2
208 1
232 -1
J275 2
209 1
232 -1
J276 2
210 1
232 -1
J277 2
211 1
232 -1
J278 2
212 1
232 -1
J279 2
213 1
233 -1
J280 2
214 1
233 -1
J281 2
215 1
233 -1
J282 2
216 1
233 -1
J283 2
217 1
233 -1
J284 2
218 1
233 -1
J285 2
219 1
233 -1
J286 2
220 1
233 -1
J287 2
221 1
234 -1
J288 2
222 1
234 -1
J289 2
223 1
234 -1
J290 2
224 1
234 -1
J291 2
225 1
234 -1
J292 2
226 1
234 -1
J293 2
227 1
234 -1
J294 2
228 1
234 -1
J295 48
307 1
308 1
309 1
310 1
311 1
312 1
313 1
314 1
315 1
316 1
317 1
318 1
319 1
320 1
321 1
322 1
323 1
324 1
325 1
326 1
327 1
328 1
329 1
330 1
331 1
332 1
333 1
334 1
335 1
336 1
337 1
338 1
339 1
340 1
341 1
342 1
343 1
344 1
345 1
346 1
347 1
348 1
349 1
350 1
351 1
352 1
353 1
354 1
J296 48
355 1
356 1
357 1
358 1
359 1
360 1
361 1
362 1
363 1
364 1
365 1
366 1
367 1
368 1
369 1
370 1
371 1
372 1
373 1
374 1
375 1
376 1
377 1
378 1
379 1
380 1
381 1
382 1
383 1
384 1
385 1
386 1
387 1
388 1
389 1
390 1
391 1
392 1
393 1
394 1
395 1
396 1
397 1
398 1
399 1
400 1
401 1
402 1
J297 48
403 1
404 1
405 1
406 1
407 1
408 1
409 1
410 1
411 1
412 1
413 1
414 1
415 1
416 1
417 1
418 1
419 1
420 1
421 1
422 1
423 1
424 1
425 1
426 1
427 1
428 1
429 1
430 1
431 1
432 1
433 1
434 1
435 1
436 1
437 1
438 1
439 1
440 1
441 1
442 1
443 1
444 1
445 1
446 1
447 1
448 1
449 1
450 1
J298 1
235 1
G0 1
36 1
